c File: data_files/evolved_graphs/g3720.col
c
c Auto generated graph
c
p edge 100 1469
e 1 17
e 1 18
e 1 20
e 1 22
e 1 32
e 1 41
e 1 42
e 1 44
e 1 45
e 1 46
e 1 47
e 1 48
e 1 50
e 1 52
e 1 55
e 1 56
e 1 58
e 1 59
e 1 60
e 1 61
e 1 62
e 1 67
e 1 70
e 1 72
e 1 74
e 1 78
e 1 82
e 1 83
e 1 85
e 1 86
e 1 89
e 1 95
e 2 8
e 2 13
e 2 17
e 2 20
e 2 21
e 2 24
e 2 25
e 2 28
e 2 33
e 2 39
e 2 42
e 2 45
e 2 46
e 2 47
e 2 48
e 2 52
e 2 53
e 2 55
e 2 56
e 2 60
e 2 61
e 2 63
e 2 65
e 2 69
e 2 70
e 2 71
e 2 80
e 2 81
e 2 89
e 2 93
e 2 100
e 3 13
e 3 17
e 3 28
e 3 32
e 3 34
e 3 39
e 3 41
e 3 44
e 3 48
e 3 50
e 3 51
e 3 52
e 3 53
e 3 54
e 3 56
e 3 57
e 3 58
e 3 61
e 3 62
e 3 63
e 3 64
e 3 65
e 3 68
e 3 72
e 3 85
e 4 5
e 4 15
e 4 20
e 4 22
e 4 23
e 4 42
e 4 43
e 4 47
e 4 49
e 4 50
e 4 51
e 4 53
e 4 55
e 4 59
e 4 60
e 4 61
e 4 62
e 4 64
e 4 66
e 4 68
e 4 70
e 4 80
e 4 86
e 4 97
e 5 10
e 5 15
e 5 18
e 5 30
e 5 38
e 5 42
e 5 47
e 5 48
e 5 50
e 5 53
e 5 54
e 5 55
e 5 57
e 5 58
e 5 59
e 5 60
e 5 63
e 5 64
e 5 65
e 5 67
e 5 68
e 5 72
e 5 79
e 5 92
e 6 9
e 6 11
e 6 13
e 6 15
e 6 17
e 6 22
e 6 32
e 6 42
e 6 46
e 6 47
e 6 48
e 6 50
e 6 51
e 6 52
e 6 53
e 6 54
e 6 55
e 6 58
e 6 59
e 6 60
e 6 61
e 6 64
e 6 65
e 6 66
e 6 67
e 6 68
e 6 70
e 6 80
e 6 85
e 6 89
e 6 91
e 6 96
e 6 98
e 6 100
e 7 17
e 7 31
e 7 32
e 7 42
e 7 43
e 7 44
e 7 45
e 7 52
e 7 53
e 7 54
e 7 55
e 7 56
e 7 57
e 7 60
e 7 63
e 7 64
e 7 65
e 7 67
e 7 68
e 7 69
e 7 71
e 7 78
e 7 80
e 7 81
e 7 82
e 7 84
e 7 85
e 7 90
e 7 94
e 7 96
e 7 97
e 8 12
e 8 15
e 8 25
e 8 38
e 8 45
e 8 47
e 8 48
e 8 49
e 8 51
e 8 53
e 8 54
e 8 56
e 8 57
e 8 59
e 8 64
e 8 65
e 8 66
e 8 67
e 8 69
e 8 71
e 8 72
e 8 76
e 8 89
e 8 96
e 9 12
e 9 13
e 9 16
e 9 20
e 9 21
e 9 26
e 9 36
e 9 42
e 9 44
e 9 46
e 9 49
e 9 52
e 9 53
e 9 54
e 9 56
e 9 57
e 9 61
e 9 62
e 9 65
e 9 67
e 9 68
e 9 70
e 9 72
e 9 74
e 9 91
e 9 96
e 10 14
e 10 15
e 10 17
e 10 19
e 10 21
e 10 27
e 10 33
e 10 35
e 10 42
e 10 43
e 10 44
e 10 45
e 10 47
e 10 48
e 10 51
e 10 52
e 10 53
e 10 54
e 10 55
e 10 56
e 10 59
e 10 60
e 10 61
e 10 62
e 10 63
e 10 64
e 10 67
e 10 70
e 10 71
e 10 73
e 10 78
e 10 80
e 10 86
e 10 89
e 10 100
e 11 13
e 11 18
e 11 19
e 11 29
e 11 30
e 11 31
e 11 37
e 11 38
e 11 42
e 11 48
e 11 49
e 11 50
e 11 52
e 11 55
e 11 56
e 11 57
e 11 58
e 11 60
e 11 61
e 11 62
e 11 63
e 11 64
e 11 65
e 11 69
e 11 70
e 11 84
e 11 99
e 11 100
e 12 14
e 12 19
e 12 20
e 12 31
e 12 38
e 12 40
e 12 42
e 12 43
e 12 44
e 12 45
e 12 49
e 12 51
e 12 52
e 12 54
e 12 55
e 12 56
e 12 58
e 12 59
e 12 61
e 12 62
e 12 63
e 12 65
e 12 66
e 12 67
e 12 71
e 12 77
e 12 87
e 12 91
e 12 94
e 12 99
e 13 14
e 13 18
e 13 19
e 13 25
e 13 30
e 13 33
e 13 43
e 13 44
e 13 49
e 13 50
e 13 51
e 13 52
e 13 54
e 13 57
e 13 58
e 13 61
e 13 62
e 13 64
e 13 65
e 13 69
e 13 70
e 13 72
e 13 79
e 13 81
e 13 86
e 13 91
e 13 99
e 14 17
e 14 24
e 14 34
e 14 35
e 14 42
e 14 47
e 14 50
e 14 52
e 14 53
e 14 54
e 14 55
e 14 56
e 14 57
e 14 61
e 14 62
e 14 65
e 14 70
e 14 72
e 14 73
e 14 79
e 14 86
e 14 91
e 14 93
e 14 97
e 15 16
e 15 21
e 15 32
e 15 33
e 15 36
e 15 39
e 15 41
e 15 42
e 15 47
e 15 48
e 15 50
e 15 55
e 15 60
e 15 61
e 15 69
e 15 75
e 15 78
e 15 83
e 15 92
e 15 93
e 16 20
e 16 23
e 16 31
e 16 43
e 16 45
e 16 47
e 16 48
e 16 51
e 16 52
e 16 53
e 16 54
e 16 56
e 16 60
e 16 61
e 16 66
e 16 69
e 16 70
e 16 92
e 16 93
e 16 99
e 17 20
e 17 25
e 17 28
e 17 30
e 17 38
e 17 42
e 17 43
e 17 44
e 17 47
e 17 49
e 17 50
e 17 52
e 17 62
e 17 63
e 17 65
e 17 69
e 17 71
e 17 77
e 17 78
e 17 88
e 17 90
e 17 94
e 17 96
e 17 97
e 17 100
e 18 21
e 18 22
e 18 23
e 18 40
e 18 44
e 18 46
e 18 48
e 18 49
e 18 50
e 18 51
e 18 55
e 18 56
e 18 59
e 18 61
e 18 63
e 18 64
e 18 65
e 18 66
e 18 67
e 18 69
e 18 70
e 18 71
e 18 91
e 18 95
e 19 20
e 19 30
e 19 31
e 19 32
e 19 36
e 19 38
e 19 44
e 19 45
e 19 49
e 19 51
e 19 52
e 19 54
e 19 60
e 19 67
e 19 71
e 19 72
e 19 79
e 19 83
e 19 86
e 19 91
e 19 100
e 20 23
e 20 27
e 20 29
e 20 33
e 20 44
e 20 46
e 20 47
e 20 48
e 20 54
e 20 55
e 20 56
e 20 64
e 20 66
e 20 68
e 20 71
e 20 72
e 20 81
e 20 92
e 20 94
e 20 97
e 21 23
e 21 37
e 21 38
e 21 39
e 21 44
e 21 45
e 21 49
e 21 52
e 21 53
e 21 55
e 21 58
e 21 60
e 21 64
e 21 65
e 21 68
e 21 70
e 21 72
e 21 92
e 22 27
e 22 30
e 22 33
e 22 40
e 22 45
e 22 46
e 22 47
e 22 48
e 22 52
e 22 53
e 22 56
e 22 60
e 22 62
e 22 66
e 22 69
e 22 72
e 22 96
e 23 25
e 23 36
e 23 37
e 23 41
e 23 42
e 23 44
e 23 45
e 23 46
e 23 48
e 23 49
e 23 51
e 23 52
e 23 56
e 23 57
e 23 58
e 23 60
e 23 61
e 23 62
e 23 64
e 23 69
e 23 71
e 23 72
e 23 77
e 23 78
e 23 86
e 23 90
e 23 93
e 24 25
e 24 26
e 24 27
e 24 29
e 24 30
e 24 34
e 24 39
e 24 41
e 24 42
e 24 45
e 24 47
e 24 52
e 24 62
e 24 67
e 24 68
e 24 84
e 24 97
e 25 26
e 25 36
e 25 44
e 25 45
e 25 46
e 25 50
e 25 53
e 25 54
e 25 56
e 25 59
e 25 60
e 25 62
e 25 68
e 25 69
e 25 73
e 25 76
e 25 82
e 25 89
e 25 97
e 26 34
e 26 35
e 26 36
e 26 39
e 26 43
e 26 48
e 26 49
e 26 53
e 26 57
e 26 61
e 26 62
e 26 63
e 26 64
e 26 65
e 26 70
e 26 71
e 26 72
e 26 74
e 26 76
e 26 78
e 26 79
e 26 84
e 26 86
e 26 88
e 26 89
e 26 90
e 26 91
e 27 29
e 27 36
e 27 38
e 27 40
e 27 52
e 27 56
e 27 60
e 27 62
e 27 64
e 27 65
e 27 66
e 27 67
e 27 68
e 27 70
e 27 75
e 27 77
e 27 79
e 27 83
e 27 85
e 27 89
e 27 90
e 27 92
e 28 31
e 28 35
e 28 38
e 28 41
e 28 42
e 28 43
e 28 44
e 28 46
e 28 47
e 28 50
e 28 56
e 28 57
e 28 60
e 28 63
e 28 66
e 28 67
e 28 68
e 28 71
e 28 75
e 28 77
e 28 80
e 28 81
e 28 82
e 28 87
e 28 92
e 29 31
e 29 33
e 29 36
e 29 38
e 29 44
e 29 46
e 29 47
e 29 48
e 29 49
e 29 55
e 29 61
e 29 62
e 29 63
e 29 64
e 29 66
e 29 67
e 29 74
e 29 75
e 29 77
e 29 80
e 29 82
e 29 83
e 29 86
e 29 89
e 29 90
e 29 99
e 30 34
e 30 39
e 30 41
e 30 44
e 30 46
e 30 51
e 30 53
e 30 54
e 30 55
e 30 58
e 30 60
e 30 62
e 30 63
e 30 65
e 30 67
e 30 68
e 30 69
e 30 75
e 30 76
e 30 81
e 30 82
e 30 83
e 30 84
e 30 85
e 30 86
e 30 87
e 30 90
e 30 91
e 30 92
e 31 32
e 31 36
e 31 39
e 31 42
e 31 43
e 31 44
e 31 48
e 31 50
e 31 51
e 31 53
e 31 57
e 31 58
e 31 61
e 31 63
e 31 66
e 31 67
e 31 68
e 31 70
e 31 72
e 31 73
e 31 75
e 31 81
e 31 85
e 31 88
e 31 91
e 31 93
e 32 48
e 32 49
e 32 51
e 32 54
e 32 55
e 32 58
e 32 62
e 32 66
e 32 67
e 32 71
e 32 73
e 32 74
e 32 76
e 32 78
e 32 80
e 32 81
e 32 86
e 32 89
e 32 90
e 33 36
e 33 42
e 33 44
e 33 45
e 33 48
e 33 52
e 33 53
e 33 56
e 33 60
e 33 66
e 33 68
e 33 70
e 33 71
e 33 76
e 33 77
e 33 78
e 33 79
e 33 81
e 33 87
e 33 92
e 34 38
e 34 42
e 34 43
e 34 44
e 34 47
e 34 50
e 34 51
e 34 53
e 34 55
e 34 57
e 34 58
e 34 59
e 34 64
e 34 65
e 34 77
e 34 79
e 34 81
e 34 84
e 34 86
e 34 87
e 34 88
e 34 90
e 34 93
e 35 42
e 35 43
e 35 45
e 35 47
e 35 51
e 35 58
e 35 62
e 35 67
e 35 69
e 35 71
e 35 73
e 35 76
e 35 79
e 35 84
e 35 86
e 35 90
e 35 92
e 36 41
e 36 42
e 36 43
e 36 47
e 36 48
e 36 49
e 36 51
e 36 55
e 36 56
e 36 57
e 36 58
e 36 60
e 36 62
e 36 64
e 36 67
e 36 68
e 36 70
e 36 71
e 36 72
e 36 75
e 36 80
e 36 81
e 36 82
e 36 85
e 36 86
e 36 87
e 36 88
e 36 89
e 36 90
e 36 91
e 36 96
e 37 39
e 37 43
e 37 44
e 37 54
e 37 55
e 37 56
e 37 57
e 37 58
e 37 62
e 37 69
e 37 70
e 37 71
e 37 74
e 37 77
e 37 80
e 37 84
e 37 85
e 37 89
e 37 90
e 38 42
e 38 44
e 38 47
e 38 49
e 38 53
e 38 55
e 38 56
e 38 58
e 38 61
e 38 63
e 38 64
e 38 68
e 38 69
e 38 70
e 38 73
e 38 74
e 38 76
e 38 77
e 38 82
e 38 83
e 38 89
e 38 91
e 38 92
e 38 100
e 39 42
e 39 44
e 39 47
e 39 51
e 39 52
e 39 53
e 39 54
e 39 55
e 39 56
e 39 57
e 39 60
e 39 62
e 39 65
e 39 67
e 39 70
e 39 73
e 39 78
e 39 81
e 39 86
e 39 88
e 39 89
e 39 90
e 40 42
e 40 45
e 40 48
e 40 49
e 40 52
e 40 53
e 40 54
e 40 55
e 40 58
e 40 59
e 40 60
e 40 62
e 40 63
e 40 66
e 40 67
e 40 70
e 40 73
e 40 74
e 40 75
e 40 76
e 40 77
e 40 78
e 40 79
e 40 83
e 40 84
e 40 86
e 40 90
e 40 91
e 40 92
e 40 93
e 40 100
e 41 43
e 41 44
e 41 47
e 41 48
e 41 50
e 41 54
e 41 55
e 41 59
e 41 60
e 41 62
e 41 64
e 41 66
e 41 68
e 41 70
e 41 72
e 41 78
e 41 79
e 41 84
e 41 86
e 41 87
e 41 88
e 41 89
e 41 91
e 41 100
e 42 47
e 42 49
e 42 69
e 42 73
e 42 75
e 42 77
e 42 81
e 42 83
e 42 84
e 42 87
e 42 91
e 42 94
e 43 50
e 43 61
e 43 64
e 43 67
e 43 73
e 43 77
e 43 84
e 43 85
e 43 86
e 43 89
e 43 90
e 43 94
e 43 95
e 44 56
e 44 57
e 44 64
e 44 72
e 44 74
e 44 76
e 44 79
e 44 81
e 44 82
e 44 86
e 44 87
e 44 88
e 44 89
e 44 97
e 44 98
e 45 48
e 45 49
e 45 53
e 45 56
e 45 65
e 45 72
e 45 73
e 45 74
e 45 75
e 45 81
e 45 83
e 45 85
e 45 86
e 45 88
e 45 91
e 45 92
e 46 47
e 46 50
e 46 55
e 46 58
e 46 65
e 46 73
e 46 74
e 46 76
e 46 77
e 46 78
e 46 83
e 46 85
e 46 86
e 46 89
e 46 92
e 46 93
e 47 48
e 47 49
e 47 54
e 47 55
e 47 56
e 47 61
e 47 62
e 47 67
e 47 70
e 47 73
e 47 74
e 47 75
e 47 76
e 47 77
e 47 79
e 47 81
e 47 86
e 47 87
e 47 89
e 48 64
e 48 69
e 48 74
e 48 77
e 48 79
e 48 81
e 48 82
e 48 87
e 48 88
e 48 89
e 48 92
e 49 55
e 49 56
e 49 59
e 49 61
e 49 62
e 49 63
e 49 64
e 49 65
e 49 66
e 49 69
e 49 77
e 49 78
e 49 81
e 49 82
e 49 83
e 49 85
e 49 88
e 49 90
e 49 91
e 49 92
e 49 100
e 50 56
e 50 58
e 50 60
e 50 61
e 50 62
e 50 64
e 50 69
e 50 73
e 50 74
e 50 76
e 50 77
e 50 83
e 50 85
e 50 89
e 50 91
e 50 92
e 50 97
e 50 98
e 50 100
e 51 57
e 51 61
e 51 62
e 51 68
e 51 71
e 51 74
e 51 75
e 51 80
e 51 83
e 51 84
e 51 85
e 51 86
e 51 88
e 51 89
e 51 96
e 51 98
e 52 71
e 52 73
e 52 74
e 52 75
e 52 78
e 52 79
e 52 82
e 52 83
e 52 87
e 52 88
e 52 90
e 52 91
e 53 57
e 53 62
e 53 66
e 53 68
e 53 72
e 53 74
e 53 76
e 53 77
e 53 85
e 53 88
e 53 89
e 53 92
e 53 93
e 54 62
e 54 64
e 54 69
e 54 70
e 54 72
e 54 75
e 54 80
e 54 81
e 54 82
e 54 84
e 54 85
e 54 89
e 54 91
e 54 100
e 55 56
e 55 59
e 55 77
e 55 78
e 55 80
e 55 83
e 55 85
e 55 86
e 55 91
e 55 99
e 56 66
e 56 73
e 56 75
e 56 79
e 56 80
e 56 82
e 56 86
e 56 92
e 56 97
e 57 58
e 57 61
e 57 64
e 57 70
e 57 76
e 57 79
e 57 81
e 57 84
e 57 87
e 57 91
e 57 95
e 58 61
e 58 64
e 58 65
e 58 73
e 58 80
e 58 90
e 58 91
e 58 92
e 59 61
e 59 70
e 59 71
e 59 74
e 59 75
e 59 78
e 59 81
e 59 83
e 59 87
e 59 90
e 59 92
e 59 94
e 59 97
e 60 61
e 60 64
e 60 69
e 60 73
e 60 76
e 60 78
e 60 84
e 60 87
e 60 88
e 60 91
e 60 94
e 60 96
e 60 97
e 61 63
e 61 67
e 61 74
e 61 81
e 61 82
e 61 85
e 61 86
e 61 87
e 61 88
e 61 89
e 61 90
e 61 91
e 61 92
e 61 95
e 61 99
e 62 63
e 62 69
e 62 70
e 62 75
e 62 76
e 62 79
e 62 80
e 62 82
e 62 83
e 62 85
e 62 87
e 62 89
e 63 73
e 63 74
e 63 75
e 63 76
e 63 79
e 63 81
e 63 85
e 63 87
e 63 88
e 63 89
e 63 90
e 63 100
e 64 65
e 64 70
e 64 72
e 64 73
e 64 75
e 64 77
e 64 78
e 64 80
e 64 81
e 64 83
e 64 89
e 64 90
e 64 93
e 64 98
e 65 66
e 65 68
e 65 73
e 65 77
e 65 82
e 65 88
e 65 90
e 65 91
e 66 69
e 66 76
e 66 77
e 66 78
e 66 81
e 66 82
e 66 86
e 66 88
e 66 98
e 67 71
e 67 77
e 67 78
e 67 79
e 67 80
e 67 83
e 67 89
e 67 91
e 68 75
e 68 80
e 68 81
e 68 85
e 68 89
e 68 90
e 69 73
e 69 74
e 69 75
e 69 76
e 69 79
e 69 80
e 69 89
e 69 94
e 69 99
e 70 72
e 70 73
e 70 78
e 70 80
e 70 81
e 70 89
e 70 91
e 70 92
e 71 76
e 71 79
e 71 80
e 71 81
e 71 85
e 71 89
e 71 91
e 72 74
e 72 75
e 72 78
e 72 79
e 72 85
e 72 86
e 72 92
e 72 98
e 73 76
e 73 81
e 73 95
e 73 97
e 73 99
e 74 75
e 74 81
e 74 97
e 74 98
e 75 81
e 75 82
e 75 85
e 75 86
e 75 100
e 76 80
e 76 84
e 76 85
e 76 86
e 76 87
e 76 88
e 76 89
e 76 96
e 77 78
e 77 80
e 77 84
e 77 87
e 77 89
e 77 90
e 77 92
e 78 80
e 78 82
e 78 86
e 78 87
e 78 90
e 78 95
e 78 96
e 78 97
e 78 99
e 79 87
e 79 93
e 79 96
e 79 97
e 80 83
e 80 87
e 80 89
e 81 87
e 81 92
e 81 96
e 81 98
e 82 85
e 82 86
e 82 88
e 82 100
e 83 87
e 83 88
e 83 90
e 83 92
e 83 93
e 84 90
e 85 86
e 85 88
e 85 96
e 85 99
e 86 87
e 86 93
e 86 96
e 86 97
e 86 98
e 87 89
e 87 92
e 87 100
e 88 89
e 88 91
e 89 96
e 91 95
e 91 97
e 91 100
e 92 94
e 92 95
e 93 98
e 94 95
e 95 96
e 96 99
e 98 99
